20	5
0	8	7	6	8	5	1	3	2	4
1	6	16	15	9	14	20	18
2	7	14	20	16	10	18	15	19
3	5	15	16	19	11	18
4	7	16	20	14	9	13	15	19
5	9	12	13	17	19	20	14	15	18	16
6	8	14	19	20	13	17	15	18	16
7	8	16	20	14	18	15	13	17	19
8	7	18	15	20	10	14	13	16
9	2	17	12
10	1	9
11	3	13	10	14
12	1	21
13	1	21
14	1	21
15	1	21
16	1	21
17	1	21
18	1	21
19	1	21
20	1	21
21	0
0	0	0	0	0	0	0
1	3	0	0	2	0	3
2	2	3	0	4	0	1
3	9	0	4	2	0	2
4	9	0	2	2	0	4
5	3	1	0	0	0	0
6	7	4	0	0	0	2
7	8	5	0	3	0	5
8	9	0	0	5	5	3
9	6	0	0	0	4	5
10	2	0	5	0	0	0
11	4	4	3	2	5	0
12	3	0	0	3	5	0
13	2	0	3	0	2	0
14	3	0	3	3	4	0
15	7	0	0	4	4	0
16	9	0	5	0	5	0
17	1	0	3	3	0	0
18	5	5	0	0	0	1
19	3	3	0	5	0	5
20	1	4	4	5	4	5
21	0	0	0	0	0	0
7	6	8	7	9
